
Starting CP-SAT solver v9.15.6755
Parameters: random_seed: 2026074582 max_time_in_seconds: 2500 log_search_progress: true cp_model_presolve: true linearization_level: 2 num_search_workers: 4 cp_model_probing_level: 2 symmetry_level: 2

Initial satisfaction model '': (model_fingerprint: 0x743bf95882780988)
#Variables: 724 (602 primary variables)
  - 724 Booleans in [0,1]
#kBoolAnd: 110 (#enforced: 110) (#literals: 330)
#kBoolOr: 110 (#enforced: 110) (#literals: 220)
#kExactlyOne: 87 (#literals: 261)
#kLinear1: 38 (#enforced: 6)
#kLinear2: 336 (#enforced: 336) (#complex_domain: 110)
#kLinear3: 1'600 (#enforced: 6)
#kLinearN: 1'132 (#enforced: 243) (#terms: 9'111)

Starting presolve at 0.00s
  1.01e-03s  0.00e+00d  [DetectDominanceRelations] 
  1.13e-02s  0.00e+00d  [PresolveToFixPoint] #num_loops=3 #num_dual_strengthening=1 
  3.98e-05s  0.00e+00d  [ExtractEncodingFromLinear] #potential_supersets=104 
  3.09e-04s  0.00e+00d  [DetectDuplicateColumns] 
  1.18e-04s  0.00e+00d  [DetectDuplicateConstraints] #duplicates=11 
[Symmetry] Graph for symmetry has 4'847 nodes and 15'518 arcs.
[Symmetry] Symmetry computation done. time: 0.00130579 dtime: 0.00180892
[SAT presolve] num removable Booleans: 220 / 620
[SAT presolve] num trivial clauses: 0
[SAT presolve] [0s] clauses:2'702 literals:7'356 vars:506 one_side_vars:66 simple_definition:1 singleton_clauses:0
[SAT presolve] [0.000233976s] clauses:2'701 literals:7'349 vars:506 one_side_vars:66 simple_definition:1 singleton_clauses:0
[SAT presolve] [0.000698072s] clauses:2'224 literals:6'552 vars:380 one_side_vars:70 simple_definition:69 singleton_clauses:0
  1.24e-04s  0.00e+00d  [DetectDuplicateConstraintsWithDifferentEnforcements] #without_enforcements=11 
  5.63e-03s  2.26e-03d  [Probe] #probed=1'282 #fixed_bools=10 #equiv=8 #new_binary_clauses=1'132 
  5.30e-04s  3.32e-04d  [MaxClique] Merged 589 constraints with 1'348 literals into 515 constraints with 1'225 literals
  9.23e-04s  0.00e+00d  [DetectDominanceRelations] 
  3.16e-03s  0.00e+00d  [PresolveToFixPoint] #num_loops=1 #num_dual_strengthening=1 
  1.19e-03s  0.00e+00d  [ProcessAtMostOneAndLinear] 
  9.94e-05s  0.00e+00d  [DetectDuplicateConstraints] #duplicates=3 
  8.26e-05s  0.00e+00d  [DetectDuplicateConstraintsWithDifferentEnforcements] 
  2.93e-03s  9.16e-05d  [DetectDominatedLinearConstraints] #relevant_constraints=817 #num_inclusions=457 #num_redundant=7 
  1.38e-04s  0.00e+00d  [DetectDifferentVariables] 
  7.94e-04s  7.71e-05d  [ProcessSetPPC] #relevant_constraints=2'957 #num_inclusions=51 
  2.92e-04s  3.33e-05d  [TransformClausesToExactlyOne] #num_amos=505 #num_clauses=1'651 #num_checked=1'651 
  5.10e-05s  0.00e+00d  [DetectEncodedComplexDomains] 
  3.25e-05s  1.90e-07d  [FindAlmostIdenticalLinearConstraints] #num_tested_pairs=2 
  9.68e-04s  1.31e-03d  [FindBigAtMostOneAndLinearOverlap] 
  1.46e-03s  1.14e-03d  [FindBigVerticalLinearOverlap] #blocks=1 #saved_nz=37 
  3.96e-04s  6.62e-04d  [FindBigHorizontalLinearOverlap] #linears=457 
  3.42e-04s  2.65e-05d  [MergeClauses] #num_collisions=16 #num_merges=16 #num_saved_literals=80 
  8.98e-04s  0.00e+00d  [DetectDominanceRelations] 
  3.07e-03s  0.00e+00d  [PresolveToFixPoint] #num_loops=2 #num_dual_strengthening=1 
  9.00e-04s  0.00e+00d  [DetectDominanceRelations] 
  3.01e-03s  0.00e+00d  [PresolveToFixPoint] #num_loops=1 #num_dual_strengthening=1 
  2.18e-04s  0.00e+00d  [DetectDuplicateColumns] 
  8.86e-05s  0.00e+00d  [DetectDuplicateConstraints] 
[Symmetry] Graph for symmetry has 4'283 nodes and 13'377 arcs.
[Symmetry] Symmetry computation done. time: 0.000994479 dtime: 0.00130686
[SAT presolve] num removable Booleans: 93 / 475
[SAT presolve] num trivial clauses: 0
[SAT presolve] [0s] clauses:2'092 literals:6'179 vars:449 one_side_vars:148 simple_definition:82 singleton_clauses:0
[SAT presolve] [0.000227897s] clauses:2'092 literals:6'017 vars:449 one_side_vars:193 simple_definition:67 singleton_clauses:0
[SAT presolve] [0.000315617s] clauses:2'082 literals:6'010 vars:446 one_side_vars:194 simple_definition:60 singleton_clauses:0
  1.58e-04s  0.00e+00d  [DetectDuplicateConstraintsWithDifferentEnforcements] #without_enforcements=1 
  5.71e-03s  2.00e-03d  [Probe] #probed=1'272 #new_binary_clauses=776 
  4.53e-04s  3.48e-04d  [MaxClique] Merged 497 constraints with 1'119 literals into 488 constraints with 1'117 literals
  9.05e-04s  0.00e+00d  [DetectDominanceRelations] 
  3.06e-03s  0.00e+00d  [PresolveToFixPoint] #num_loops=1 #num_dual_strengthening=1 
  1.12e-03s  0.00e+00d  [ProcessAtMostOneAndLinear] 
  1.38e-04s  0.00e+00d  [DetectDuplicateConstraints] 
  8.70e-05s  0.00e+00d  [DetectDuplicateConstraintsWithDifferentEnforcements] 
  2.78e-03s  8.28e-05d  [DetectDominatedLinearConstraints] #relevant_constraints=812 #num_inclusions=430 
  1.38e-04s  0.00e+00d  [DetectDifferentVariables] 
  7.55e-04s  7.37e-05d  [ProcessSetPPC] #relevant_constraints=2'995 #num_inclusions=82 
  3.09e-04s  3.26e-05d  [TransformClausesToExactlyOne] #num_amos=487 #num_clauses=1'647 #num_checked=1'647 
  4.32e-05s  0.00e+00d  [DetectEncodedComplexDomains] 
  3.46e-05s  1.00e-07d  [FindAlmostIdenticalLinearConstraints] #num_tested_pairs=1 
  9.40e-04s  1.25e-03d  [FindBigAtMostOneAndLinearOverlap] 
  1.39e-03s  1.09e-03d  [FindBigVerticalLinearOverlap] #blocks=1 #saved_nz=31 
  3.81e-04s  6.34e-04d  [FindBigHorizontalLinearOverlap] #linears=455 
  3.44e-04s  2.57e-05d  [MergeClauses] #num_collisions=69 #num_merges=69 #num_saved_literals=198 
  9.13e-04s  0.00e+00d  [DetectDominanceRelations] 
  3.11e-03s  0.00e+00d  [PresolveToFixPoint] #num_loops=2 #num_dual_strengthening=1 
  9.02e-04s  0.00e+00d  [DetectDominanceRelations] 
  3.07e-03s  0.00e+00d  [PresolveToFixPoint] #num_loops=1 #num_dual_strengthening=1 
  1.81e-04s  0.00e+00d  [DetectDuplicateColumns] 
  1.02e-04s  0.00e+00d  [DetectDuplicateConstraints] 
[Symmetry] Graph for symmetry has 4'223 nodes and 13'020 arcs.
[Symmetry] Symmetry computation done. time: 0.000949613 dtime: 0.00127228
[SAT presolve] num removable Booleans: 90 / 472
[SAT presolve] num trivial clauses: 0
[SAT presolve] [0s] clauses:2'068 literals:5'978 vars:446 one_side_vars:194 simple_definition:60 singleton_clauses:0
[SAT presolve] [0.000210541s] clauses:2'068 literals:5'978 vars:446 one_side_vars:194 simple_definition:60 singleton_clauses:0
[SAT presolve] [0.000278952s] clauses:2'068 literals:5'978 vars:446 one_side_vars:194 simple_definition:60 singleton_clauses:0
  1.64e-04s  0.00e+00d  [DetectDuplicateConstraintsWithDifferentEnforcements] 
  5.73e-03s  2.00e-03d  [Probe] #probed=1'272 #new_binary_clauses=776 
  4.46e-04s  3.40e-04d  [MaxClique] 
  9.43e-04s  0.00e+00d  [DetectDominanceRelations] 
  3.12e-03s  0.00e+00d  [PresolveToFixPoint] #num_loops=1 #num_dual_strengthening=1 
  1.12e-03s  0.00e+00d  [ProcessAtMostOneAndLinear] 
  1.08e-04s  0.00e+00d  [DetectDuplicateConstraints] 
  8.99e-05s  0.00e+00d  [DetectDuplicateConstraintsWithDifferentEnforcements] 
  2.18e-03s  7.47e-05d  [DetectDominatedLinearConstraints] #relevant_constraints=813 #num_inclusions=395 
  1.34e-04s  0.00e+00d  [DetectDifferentVariables] 
  7.67e-04s  7.10e-05d  [ProcessSetPPC] #relevant_constraints=2'990 #num_inclusions=68 
  3.01e-04s  3.26e-05d  [TransformClausesToExactlyOne] #num_amos=485 #num_clauses=1'647 #num_checked=1'647 
  5.08e-05s  0.00e+00d  [DetectEncodedComplexDomains] 
  3.97e-05s  1.80e-07d  [FindAlmostIdenticalLinearConstraints] #num_tested_pairs=2 
  9.36e-04s  1.21e-03d  [FindBigAtMostOneAndLinearOverlap] 
  1.40e-03s  1.03e-03d  [FindBigVerticalLinearOverlap] #blocks=2 #saved_nz=71 
  3.59e-04s  5.94e-04d  [FindBigHorizontalLinearOverlap] #linears=454 
  3.34e-04s  2.57e-05d  [MergeClauses] #num_collisions=69 #num_merges=69 #num_saved_literals=198 
  9.26e-04s  0.00e+00d  [DetectDominanceRelations] 
  3.19e-03s  0.00e+00d  [PresolveToFixPoint] #num_loops=2 #num_dual_strengthening=1 
  2.00e-05s  0.00e+00d  [MergeNoOverlap] 
  2.01e-05s  0.00e+00d  [MergeNoOverlap2D] 

Presolve summary:
  - 32 affine relations were detected.
  - rule 'TODO dual: only one blocking constraint?' was applied 875 times.
  - rule 'TODO dual: tighten at most one' was applied 8 times.
  - rule 'TODO linear inclusion: superset is equality' was applied 383 times.
  - rule 'affine: new relation' was applied 32 times.
  - rule 'at_most_one: removed literals' was applied 71 times.
  - rule 'at_most_one: size one' was applied 70 times.
  - rule 'at_most_one: transformed into max clique' was applied 2 times.
  - rule 'bool_or: implications' was applied 47 times.
  - rule 'bool_or: only one literal' was applied 12 times.
  - rule 'bool_or: removed enforcement literal' was applied 557 times.
  - rule 'deductions: 739 stored' was applied 1 time.
  - rule 'duplicate: merged rhs of linear constraint' was applied 13 times.
  - rule 'duplicate: removed constraint' was applied 14 times.
  - rule 'duplicate: removed enforced constraint' was applied 12 times.
  - rule 'enforcement: false literal' was applied 37 times.
  - rule 'enforcement: true literal' was applied 12 times.
  - rule 'exactly_one: removed literals' was applied 27 times.
  - rule 'exactly_one: satisfied' was applied 9 times.
  - rule 'exactly_one: singleton' was applied 3 times.
  - rule 'exactly_one: size two' was applied 24 times.
  - rule 'exactly_one: x and not(x)' was applied 6 times.
  - rule 'incompatible linear: add implication' was applied 126 times.
  - rule 'linear + amo: empty after processing' was applied 5 times.
  - rule 'linear + amo: extracted enforcement literal' was applied 52 times.
  - rule 'linear + amo: trivial linear constraint' was applied 2 times.
  - rule 'linear inclusion: redundant containing constraint' was applied 2 times.
  - rule 'linear inclusion: redundant included constraint' was applied 4 times.
  - rule 'linear inclusion: sparsify superset' was applied 1 time.
  - rule 'linear matrix: common vertical rectangle' was applied 4 times.
  - rule 'linear1: x in domain' was applied 32 times.
  - rule 'linear2: convert ax + by != cte to clauses' was applied 236 times.
  - rule 'linear2: convert implied ax + by == cte to clauses' was applied 114 times.
  - rule 'linear2: implied ax + by = cte has only one solution' was applied 8 times.
  - rule 'linear: always true' was applied 437 times.
  - rule 'linear: empty' was applied 1 time.
  - rule 'linear: extracted at most one (max)' was applied 1 time.
  - rule 'linear: fixed or dup variables' was applied 879 times.
  - rule 'linear: negative clause' was applied 1'285 times.
  - rule 'linear: negative reified and' was applied 72 times.
  - rule 'linear: never in domain' was applied 5 times.
  - rule 'linear: positive at most one' was applied 52 times.
  - rule 'linear: positive equal one' was applied 1 time.
  - rule 'linear: reduced variable domains' was applied 5 times.
  - rule 'linear: remapped using affine relations' was applied 22 times.
  - rule 'presolve: 88 unused variables removed.' was applied 1 time.
  - rule 'presolve: iteration' was applied 3 times.
  - rule 'probing: bool_or reduced to implication' was applied 34 times.
  - rule 'probing: simplified clauses' was applied 26 times.
  - rule 'setppc: bool_or in at_most_one' was applied 6 times.
  - rule 'setppc: exactly_one included in linear' was applied 1 time.
  - rule 'setppc: reduced linear coefficients' was applied 1 time.
  - rule 'setppc: removed dominated constraints' was applied 88 times.

Presolved satisfaction model '': (model_fingerprint: 0xdcef5a97d7f64cae)
#Variables: 476 (413 primary variables)
  - 472 Booleans in [0,1]
  - 4 in [0,2]
#kAtMostOne: 64 (#literals: 253)
#kBoolAnd: 264 (#enforced: 264) (#literals: 685)
#kBoolAndClauses: 69 (#enforced: 69 #multi: 69) (#literals: 336)
#kBoolOr: 1'509 (#literals: 4'602)
#kExactlyOne: 51 (#literals: 206)
#kLinear3: 9 (#enforced: 6)
#kLinearN: 806 (#enforced: 120) (#terms: 5'566)
[Symmetry] Graph for symmetry has 3'977 nodes and 12'951 arcs.
[Symmetry] Symmetry computation done. time: 0.00087286 dtime: 0.00126364

Preloading model.
#Model   0.11s var:476/476 constraints:2772/2772

Starting search at 0.11s with 4 workers.
3 full problem subsolvers: [default_lp, max_lp, no_lp]
1 first solution subsolver: [fj]
2 interleaved subsolvers: [feasibility_pump, rins/rens]
2 helper subsolvers: [neighborhood_helper, synchronization_agent]

#Model   6.06s var:475/476 constraints:2754/2772
#Model  98.66s var:474/476 constraints:2752/2772
#Model 1499.33s var:473/476 constraints:2735/2772
#Model 1582.13s var:472/476 constraints:2733/2772
#Model 1644.55s var:470/476 constraints:2695/2772
#Model 1670.09s var:469/476 constraints:2675/2772
#Model 1675.63s var:468/476 constraints:2672/2772
#Model 1684.43s var:461/476 constraints:2591/2772
#Model 1688.31s var:460/476 constraints:2577/2772
#Model 1689.25s var:459/476 constraints:2560/2772
#Model 1690.30s var:456/476 constraints:2521/2772
#Model 1691.12s var:455/476 constraints:2507/2772
#Model 1691.23s var:454/476 constraints:2486/2772
#Done  1691.67s no_lp

Task timing                   n [     min,      max]      avg      dev     time         n [     min,      max]      avg      dev    dtime
        'default_lp':         1 [  28.19m,   28.19m]   28.19m   0.00ns   28.19m         2 [  2.21ms,   27.77m]   13.88m   13.88m   27.77m
  'feasibility_pump':      8385 [904.51us, 140.81ms]   1.60ms   1.55ms   13.40s      8384 [280.36us, 125.31ms] 297.81us   1.37ms    2.50s
                'fj':      6258 [ 76.05ms, 170.27ms] 134.00ms   8.56ms   13.98m      6258 [ 56.45ms, 100.14ms] 100.01ms 550.85us   10.43m
            'max_lp':         1 [  28.19m,   28.19m]   28.19m   0.00ns   28.19m         2 [ 75.33ms,   36.05m]   18.03m   18.02m   36.05m
             'no_lp':         1 [  28.19m,   28.19m]   28.19m   0.00ns   28.19m         2 [  1.86ms,   55.70m]   27.85m   27.85m   55.70m
         'rins/rens':      7695 [686.56us, 181.08ms] 108.97ms  41.74ms   13.98m      7687 [479.62us, 100.32ms]  67.97ms  37.27ms    8.71m

Search stats     Bools   Conflicts    Branches  Restarts  BacktrackToRoot   Backtrack     BoolPropag  IntegerPropag
  'default_lp':    472     163'342   6'688'850       859        1'034'622   1'459'977     68'209'470     84'870'303
      'max_lp':    472     112'031   8'510'148       538        1'294'781   1'711'642     87'414'473    111'676'269
       'no_lp':    472  15'227'830  20'921'562    50'540          471'896  15'597'227  1'360'414'062    356'486'892

SAT formula      Fixed  Equiv  Total  VarLeft  BinaryClauses  PermanentClauses  TemporaryClauses
  'default_lp':      8      3    472      461          2'948            26'006             2'913
      'max_lp':     22      5    472      445          3'446            16'324             1'285
       'no_lp':    248      5    472      219          3'118            26'272             1'599

SAT stats        ClassicMinim   LitRemoved  LitRemovedBinary   LitLearned  LitForgotten   Subsumed
  'default_lp':       140'324    1'578'127           892'945    4'096'082     2'412'263     65'098
      'max_lp':        94'419    1'120'193           512'591    2'454'276     1'193'138     39'886
       'no_lp':    13'765'376  231'038'764        68'092'483  348'479'659   267'093'264  4'480'520

Vivification       Clauses  Decisions  LitTrue  Subsumed  LitRemoved  DecisionReused  Conflicts
  'default_lp':  1'086'761  6'283'921        2    17'086     182'236         332'842      2'179
      'max_lp':  1'335'474  8'110'718       40    20'398     222'271         392'429      2'686
       'no_lp':    362'154  3'045'065       22    23'689     320'821          94'148      1'722

Clause deletion    at_true  l_and_not(l)  to_binary  sub_conflict  sub_extra  sub_decisions  sub_eager  sub_vivify  sub_probing  sub_inpro  blocked  eliminated   forgotten    promoted   conflicts
    'default_lp':    6'408             0         16        64'072        417          2'224      1'026      17'086       10'177     22'325        0           0      73'183     303'930     163'342
        'max_lp':   11'196            15        182        39'347        254          1'155        539      20'398       15'526     26'744        0           0      42'481     211'218     112'031
         'no_lp':   83'826             0        304     4'398'865     28'915        205'204     81'655      23'689       27'435    176'282        0           0  10'179'597  34'396'279  15'227'830

Lp stats         Component  Iterations  AddedCuts  OPTIMAL  DUAL_F.  DUAL_U.
  'default_lp':          1  20'808'098     55'843  209'817        0  127'608
      'max_lp':          1   9'645'762     66'310   32'057   83'254   28'162

Lp dimension        Final dimension of first component
  'default_lp':    289 rows, 343 columns, 2745 entries
      'max_lp':  1139 rows, 476 columns, 23263 entries

Lp debug         CutPropag  CutEqPropag   Adjust  Overflow        Bad  BadScaling
  'default_lp':          0            1  127'608         0  1'831'516           0
      'max_lp':          0            6   28'160         0  1'975'014           0

Lp pool          Constraints  Updates  Simplif  Merged  Shortened  Split  Strengthened       Cuts/Call
  'default_lp':       10'626    9'139      181       0        181      6             0   55'843/87'483
      'max_lp':       12'390   21'407   13'053       2     12'909    810         1'432  66'310/119'665

Lp Cut            default_lp  max_lp
          CG_FF:         463      75
           CG_K:         272       3
          CG_KL:         224       2
           CG_R:         431      38
          CG_RB:          16       -
         CG_RBP:           1       -
         Clique:           -     211
             IB:          43       7
       MIR_1_FF:         358     638
        MIR_1_K:          55      26
       MIR_1_KL:         255      56
        MIR_1_R:         319     483
      MIR_1_RBP:           3       -
      MIR_1_RLT:           -   5'375
       MIR_2_FF:         380     650
        MIR_2_K:          70     119
       MIR_2_KL:         219     105
        MIR_2_R:         388     821
       MIR_2_RB:           2       1
      MIR_2_RBP:           8       2
       MIR_3_FF:         169     171
        MIR_3_K:          27      20
       MIR_3_KL:          68      14
        MIR_3_R:         131     300
       MIR_3_RB:           1       -
      MIR_3_RBP:           5       3
       MIR_4_FF:          52      49
        MIR_4_K:           7      12
       MIR_4_KL:          18       1
        MIR_4_R:          44     213
       MIR_4_RB:           1       1
      MIR_4_RBP:           -       9
       MIR_5_FF:          22      29
        MIR_5_K:           3       6
       MIR_5_KL:           3       2
        MIR_5_R:          30     215
       MIR_5_RB:           3       -
      MIR_5_RBP:           2       4
       MIR_6_FF:           5       7
        MIR_6_K:           3       2
       MIR_6_KL:           1       -
        MIR_6_R:          15     203
      MIR_6_RBP:           1       7
   ZERO_HALF_FF:         198     376
    ZERO_HALF_K:          38      18
   ZERO_HALF_KL:          55       4
    ZERO_HALF_R:      51'426  56'025
   ZERO_HALF_RB:           2       -
  ZERO_HALF_RBP:           6       7

LNS stats       Improv/Calls  Closed  Difficulty  TimeLimit
  'rins/rens':     7688/7688     50%    7.81e-01       0.10

LS stats                                    Batches  Restarts/Perturbs    LinMoves    GenMoves  CompoundMoves  Bactracks  WeightUpdates  ScoreComputed
                             'fj_restart':      630                100  17'651'033           0              0          0     16'701'417     24'026'277
                    'fj_restart_compound':      312                 88           0   3'398'585        211'831  1'593'234          7'719     55'579'565
                'fj_restart_compound_obj':      262                 87           0   2'807'867        199'359  1'304'060          5'921     46'624'916
            'fj_restart_compound_perturb':      255                 81           0   2'755'791        189'343  1'283'067          5'875     45'359'521
        'fj_restart_compound_perturb_obj':      380                 89           0   4'146'347        223'565  1'961'243         10'186     67'793'386
                       'fj_restart_decay':      618                102  18'748'510           0              0          0        822'397      9'609'244
              'fj_restart_decay_compound':      316                 93           0   3'709'914        592'652  1'558'407          4'146     56'977'790
          'fj_restart_decay_compound_obj':      819                 96           0  10'316'838      1'628'455  4'343'998         10'598    148'742'748
      'fj_restart_decay_compound_perturb':      262                 93           0   3'007'162        480'860  1'262'932          3'435     47'159'819
  'fj_restart_decay_compound_perturb_obj':      246                 87           0   2'813'067        452'847  1'179'892          3'218     44'281'784
                   'fj_restart_decay_obj':      660                 87  20'023'063           0              0          0        878'372     10'249'677
               'fj_restart_decay_perturb':      446                100  13'520'187           0              0          0        593'759      6'925'902
           'fj_restart_decay_perturb_obj':      217                 72   6'569'064           0              0          0        288'822      3'370'235
                         'fj_restart_obj':      314                 81   8'533'856           0              0          0      8'192'650     11'376'908
                     'fj_restart_perturb':      238                 83   6'352'860           0              0          0      5'862'106      8'997'433
                 'fj_restart_perturb_obj':      283                 80   7'424'282           0              0          0      7'182'139     11'173'112

Solution repositories    Added  Queried  Synchro
    'alternative_path':      0        0        0
      'best_solutions':      0        0        0
   'fj solution hints':  1'411        0    1'411
        'lp solutions':  1'096    7'695    1'096
                'pump':      0        0

Improving bounds shared    Num  Sym
            'default_lp':    3    0
                'max_lp':    2    0
                 'no_lp':  154    0

Clauses shared    #Exported  #Imported  #BinaryRead  #BinaryTotal
   'default_lp':      4'428     63'130          810         1'640
       'max_lp':      5'793     63'647        1'473         1'640
        'no_lp':     63'075      9'812        1'640         1'640

LRAT_status: NA
CpSolverResponse summary:
status: INFEASIBLE
objective: NA
best_bound: NA
integers: 356
booleans: 472
conflicts: 15227830
branches: 20921562
propagations: 1360414062
integer_propagations: 356486892
restarts: 50540
lp_iterations: 0
walltime: 1691.7
usertime: 1691.7
deterministic_time: 8322.35
gap_integral: 0

{
  "board_size": 22,
  "parity_proved": 0,
  "target": 34,
  "child_id": 2482,
  "child_count": 2640,
  "partition": "unknown_pair_x_diag_plus_twos_x_diag_minus_twos",
  "build_seconds": 0.08379220962524414,
  "workers": 4,
  "requested_seed": 2026074582,
  "effective_seed": 2026074582,
  "main_diagonal_pair": [
    6,
    14
  ],
  "pair_index": 103,
  "diag_plus_twos": 16,
  "diag_minus_twos": 16,
  "pair_excess": 13,
  "residual_certificate_slack": 99,
  "analytic_minimum_line_defect": 24,
  "analytic_defect_details": {
    "row_costs": {
      "12": 6,
      "13": 3,
      "14": 0,
      "15": 0,
      "16": 0,
      "17": 0
    },
    "column_costs": {
      "12": 6,
      "13": 3,
      "14": 0,
      "15": 0,
      "16": 0,
      "17": 0
    },
    "plus_cost": 24,
    "minus_cost": 0,
    "row_column_minimum": 0
  },
  "maximal_line_constraints": 2455,
  "analytic_infeasible": false,
  "allowed_points": 242,
  "status": "INFEASIBLE",
  "proof_method": "cp_sat_all_lines_with_certificate_profile_cuts",
  "elapsed_seconds": 1691.7039341926575,
  "branches": 20921562,
  "conflicts": 15227830
}
